n_res = 4;
rcap = [27, 23, 71, 80];
rtype = [1, 1, 2, 2];
n_tasks = 16;
modes = [ {1, 2, 3, 4}, {5, 6, 7, 8}, {9, 10, 11, 12}, {13, 14, 15, 16}, {17, 18, 19, 20}, {21, 22, 23, 24}, {25, 26, 27, 28}, {29, 30, 31, 32}, {33, 34, 35, 36}, {37, 38, 39, 40}, {41, 42, 43, 44}, {45, 46, 47, 48}, {49, 50, 51, 52}, {53, 54, 55, 56}, {57, 58, 59, 60}, {61, 62, 63, 64} ];
succ = [ {10, 12}, {7}, {4, 6, 7}, {5, 8, 10}, {11, 14}, {9, 10, 11}, {9, 14}, {11, 13, 14}, {12}, {15, 16}, {15, 16}, {13, 16}, {15}, {}, {}, {} ];
n_opt = 64;
dur = [2, 3, 7, 10, 1, 2, 4, 7, 1, 8, 9, 9, 2, 7, 7, 9, 1, 5, 7, 8, 1, 5, 6, 6, 2, 5, 7, 9, 2, 2, 4, 5, 5, 8, 9, 9, 1, 2, 2, 9, 2, 5, 8, 8, 5, 6, 8, 10, 2, 4, 7, 8, 4, 4, 7, 9, 1, 3, 6, 8, 3, 10, 10, 10];
rreq = [|  9,  8,  4,  4,  3,  3,  3,  2,  8,  7,  6,  6,  7,  7,  6,  6,  7,  6,  6,  5,  8,  6,  5,  6,  9,  8,  7,  6,  5,  4,  2,  1,  8,  8,  8,  8,  5,  3,  4,  3,  6,  4,  3,  3, 10, 10,  9,  9,  8,  6,  5,  4,  6,  6,  6,  4,  4,  4,  3,  2,  9,  6,  2,  5
        |  3,  3,  2,  1,  6,  4,  3,  3,  5,  4,  2,  3,  8,  8,  8,  8,  9,  7,  3,  1,  9,  6,  5,  5,  8,  8,  8,  7,  8,  8,  8,  8,  7,  6,  4,  2,  3,  2,  2,  1, 10,  5,  3,  3,  8,  7,  6,  2,  7,  7,  7,  6,  7,  7,  6,  6,  5,  5,  5,  3,  9,  3,  7,  4
        |  0,  6,  5,  3,  0,  5,  0,  0,  4,  0,  0,  2,  0,  6,  0,  5,  6,  4,  2,  0,  8,  0,  0,  0,  7,  5,  5,  0,  0,  7,  0,  4,  0,  5,  4,  5,  0,  7,  0,  9,  6,  5,  0,  5,  0,  6,  0,  5,  7,  0,  3,  0,  0,  3,  3,  0,  0,  4,  4,  0,  0,  0,  5,  0
        |  9,  0,  0,  0,  7,  0,  6,  2,  0,  8,  7,  0,  2,  0,  1,  0,  0,  0,  0,  5,  0,  3,  2,  1,  0,  0,  0,  8,  7,  0,  7,  0,  4,  0,  0,  0,  7,  0,  7,  0,  0,  0,  6,  0,  9,  0,  6,  0,  0, 10,  0,  5,  9,  0,  0,  9,  7,  0,  0,  3,  6,  5,  0,  2 |];
